1 0
2 10
3 7
4 13
5 19
6 26
7 3
8 5
9 9
10 16
11 16
12 12
13 19
14 23
15 20
16 8
17 19
18 2
19 12
20 17
21 9
22 11
23 18
24 29
25 3
26 6
27 17
28 16
29 16
30 9
31 21
32 27
33 23
34 11
35 14
36 8
37 5
38 8
39 16
40 31
41 9
42 5
43 5
44 7
45 18
46 16
47 1
48 27
49 36
50 30
51 13
52 10
53 9
54 14
55 18
56 2
57 6
58 7
59 18
60 28
61 3
62 13
63 19
64 10
65 9
66 20
67 25
68 25
69 36
70 6
71 5
72 15
73 25
74 9
75 8
76 18
77 13
78 14
79 3
80 23
81 6
82 26
83 16
84 11
85 7
86 41
87 35
88 26
89 9
90 15
91 3
92 1
93 2
94 22
95 27
96 20
97 11
98 12
99 10
100 9
101 17
